NAME : instances/clustered-mixed-tsp/instance-29.tsp
COMMENT : No Comment
TYPE : TSP
DIMENSION: 49
EDGE_WEIGHT_TYPE : EUC_2D
NODE_COORD_SECTION
1 213 206 
2 547 1975 
3 899 1121 
4 1206 1413 
5 533 862 
6 75 1202 
7 1021 111 
8 1811 340 
9 256 738 
10 295 855 
11 1830 656 
12 327 1390 
13 511 1949 
14 685 1624 
15 286 1326 
16 1205 924 
17 1761 1147 
18 846 210 
19 991 667 
20 1904 1915 
21 1430 681 
22 1648 1209 
23 820 453 
24 1892 223 
25 1957 893 
26 427 998 
27 450 1990 
28 133 741 
29 1913 708 
30 958 1692 
31 462 1516 
32 331 97 
33 1303 1987 
34 69 154 
35 434 1618 
36 73 1682 
37 313 830 
38 1602 959 
39 1431 829 
40 1363 1316 
41 1235 548 
42 1330 699 
43 1757 22 
44 1437 513 
45 559 230 
46 364 1073 
47 1252 89 
48 926 1904 
49 355 36 
EOF
